(set-logic QF_S)
(declare-fun var0 () String)
(assert (str.in.re var0 (re.++ (re.+ (re.union (str.to.re "00") (str.to.re "111"))) (re.++ (re.union (re.+ (str.to.re "2")) (re.+ (str.to.re "33"))) (re.++ (re.* (re.union (str.to.re "4") (str.to.re "55"))) (re.++ (re.+ (re.+ (str.to.re "666"))) (re.++ (re.union (re.* (str.to.re "7")) (re.* (str.to.re "8"))) (re.++ (re.union (re.+ (str.to.re "9")) (re.+ (str.to.re "aaa"))) (re.++ (re.union (re.* (str.to.re "b")) (re.* (str.to.re "cc"))) (re.++ (re.* (re.union (str.to.re "ddd") (str.to.re "ee"))) (re.++ (re.union (re.+ (str.to.re "ff")) (re.+ (str.to.re "gg"))) (re.++ (re.* (re.union (str.to.re "hh") (str.to.re "iii"))) (re.++ (re.union (re.* (str.to.re "jjj")) (re.* (str.to.re "k"))) (re.++ (re.+ (re.+ (str.to.re "lll"))) (re.++ (re.union (re.+ (str.to.re "mm")) (re.+ (str.to.re "nnn"))) (re.++ (re.* (re.+ (str.to.re "o"))) (re.++ (re.union (re.+ (str.to.re "pp")) (re.+ (str.to.re "qqq"))) (re.++ (re.union (re.* (str.to.re "r")) (re.* (str.to.re "ss"))) (re.++ (re.+ (re.union (str.to.re "tt") (str.to.re "u"))) (re.++ (re.+ (re.union (str.to.re "vv") (str.to.re "www"))) (re.++ (re.union (re.+ (str.to.re "xxx")) (re.+ (str.to.re "yy"))) (re.++ (re.+ (re.* (str.to.re "zz"))) (re.++ (re.+ (re.* (str.to.re "AAA"))) (re.++ (re.+ (re.+ (str.to.re "BB"))) (re.++ (re.union (re.union (str.to.re "C") (str.to.re "DD")) (re.union (str.to.re "EE") (str.to.re "F"))) (re.++ (re.+ (re.* (str.to.re "G"))) (re.++ (re.+ (re.union (str.to.re "H") (str.to.re "III"))) (re.++ (re.+ (re.* (str.to.re "J"))) (re.++ (re.+ (re.union (str.to.re "KK") (str.to.re "LLL"))) (re.++ (re.+ (re.* (str.to.re "MM"))) (re.++ (re.+ (re.union (str.to.re "NNN") (str.to.re "OOO"))) (re.++ (re.union (re.union (str.to.re "PPP") (str.to.re "QQQ")) (re.union (str.to.re "R") (str.to.re "SS"))) (re.++ (re.union (re.+ (str.to.re "TTT")) (re.+ (str.to.re "UUU"))) (re.++ (re.* (re.* (str.to.re "VV"))) (re.++ (re.+ (re.union (str.to.re "W") (str.to.re "X"))) (re.++ (re.* (re.+ (str.to.re "YYY"))) (re.++ (re.+ (re.union (str.to.re "ZZZ") (str.to.re "!!!"))) (re.++ (re.* (re.* (str.to.re """"""""))) (re.++ (re.* (re.+ (str.to.re "##"))) (re.++ (re.+ (re.* (str.to.re "$$"))) (re.++ (re.union (re.+ (str.to.re "%%%")) (re.+ (str.to.re "&&"))) (re.++ (re.+ (re.* (str.to.re "'"))) (re.++ (re.+ (re.union (str.to.re "(((") (str.to.re "))"))) (re.++ (re.union (re.union (str.to.re "*") (str.to.re "+")) (re.union (str.to.re ",,,") (str.to.re "---"))) (re.union (re.union (str.to.re ".") (str.to.re "/")) (re.union (str.to.re "::") (str.to.re ";;")))))))))))))))))))))))))))))))))))))))))))))))
(check-sat)